
Gurobi 6.5.2 (linux64) logging started Mon Sep 12 12:44:42 2016

Changed value of parameter MIPGap to 0.01
   Prev: 0.0001  Min: 0.0  Max: 1e+100  Default: 0.0001
Changed value of parameter TimeLimit to 7200.0
   Prev: 1e+100  Min: 0.0  Max: 1e+100  Default: 1e+100
Changed value of parameter Method to 2
   Prev: -1  Min: -1  Max: 4  Default: -1
Changed value of parameter MIPFocus to 1
   Prev: 0  Min: 0  Max: 3  Default: 0
Optimize a model with 63830 rows, 643965 columns and 1287930 nonzeros
Coefficient statistics:
  Matrix range    [1e+00, 4e+01]
  Objective range [1e+00, 1e+00]
  Bounds range    [1e+00, 1e+00]
  RHS range       [3e+02, 3e+02]
Found heuristic solution: objective 0
Presolve time: 2.37s
Presolved: 63830 rows, 643965 columns, 1287930 nonzeros
Variable types: 0 continuous, 643965 integer (643965 binary)
Optimize a model with 63830 rows, 643965 columns and 1287930 nonzeros
Coefficient statistics:
  Matrix range    [1e+00, 4e+01]
  Objective range [1e+00, 1e+00]
  Bounds range    [1e+00, 1e+00]
  RHS range       [3e+02, 3e+02]
Presolved: 63830 rows, 643965 columns, 1287930 nonzeros

Root barrier log...

Ordering time: 0.91s

Barrier statistics:
 AA' NZ     : 6.440e+05
 Factor NZ  : 4.829e+06 (roughly 300 MBytes of memory)
 Factor Ops : 5.449e+09 (less than 1 second per iteration)
 Threads    : 2

                  Objective                Residual
Iter       Primal          Dual         Primal    Dual     Compl     Time
   0  -2.03418632e+05 -6.28403733e+05  4.81e+02 0.00e+00  5.22e+00     5s
   1  -6.97475209e+04 -4.84588930e+05  8.30e+01 1.11e-15  1.04e+00     5s
   2  -4.81900159e+04 -3.16423051e+05  3.49e+01 5.17e-14  4.49e-01     6s
   3  -4.05659125e+04 -2.11791709e+05  1.96e+01 5.02e-14  2.41e-01     7s
   4  -3.02973285e+04 -8.00245555e+04  7.93e-04 2.66e-14  3.86e-02     7s
Changed value of parameter MIPGap to 0.01
   Prev: 0.0001  Min: 0.0  Max: 1e+100  Default: 0.0001
Changed value of parameter TimeLimit to 7200.0
   Prev: 1e+100  Min: 0.0  Max: 1e+100  Default: 1e+100
Changed value of parameter Method to 2
   Prev: -1  Min: -1  Max: 4  Default: -1
Changed value of parameter MIPFocus to 1
   Prev: 0  Min: 0  Max: 3  Default: 0
Optimize a model with 61580 rows, 91995 columns and 183990 nonzeros
Coefficient statistics:
  Matrix range    [1e+00, 4e+01]
  Objective range [1e+00, 1e+00]
  Bounds range    [1e+00, 1e+00]
  RHS range       [3e+02, 3e+02]
Found heuristic solution: objective 0
Presolve removed 61330 rows and 63364 columns
Presolve time: 0.25s
Presolved: 250 rows, 28631 columns, 57262 nonzeros
Variable types: 0 continuous, 28631 integer (26597 binary)
Optimize a model with 250 rows, 28631 columns and 57262 nonzeros
Coefficient statistics:
  Matrix range    [2e+00, 4e+01]
  Objective range [1e+00, 1e+00]
  Bounds range    [1e+00, 2e+00]
  RHS range       [3e+02, 3e+02]
Presolved: 250 rows, 28631 columns, 57262 nonzeros

Root barrier log...

Ordering time: 0.00s

Barrier statistics:
 AA' NZ     : 2.314e+04
 Factor NZ  : 3.125e+04 (roughly 12 MBytes of memory)
 Factor Ops : 5.192e+06 (less than 1 second per iteration)
 Threads    : 1

                  Objective                Residual
Iter       Primal          Dual         Primal    Dual     Compl     Time
   0  -1.26609004e+05 -2.45083176e+05  1.93e+02 3.55e-15  2.16e+01     0s
   1  -2.27148500e+04 -1.23877979e+05  3.48e+01 2.13e-14  4.46e+00     0s
   2  -7.15477333e+03 -4.52146427e+04  1.14e+00 1.42e-14  7.20e-01     0s
   3  -8.14940427e+03 -2.01531350e+04  6.02e-03 3.55e-14  2.09e-01     0s
   4  -9.25561869e+03 -1.36032638e+04  9.62e-04 1.42e-14  7.58e-02     0s
   5  -1.01107613e+04 -1.23032129e+04  4.88e-04 7.11e-15  3.82e-02     0s
   6  -1.05620884e+04 -1.16866051e+04  1.48e-04 1.42e-14  1.96e-02     0s
   7  -1.08288637e+04 -1.15157167e+04  0.00e+00 7.11e-15  1.20e-02     0s
   8  -1.08860997e+04 -1.14525790e+04  0.00e+00 7.11e-15  9.87e-03     0s
   9  -1.09704267e+04 -1.13779076e+04  0.00e+00 7.11e-15  7.10e-03     0s
  10  -1.10481513e+04 -1.12810226e+04  0.00e+00 7.11e-15  4.06e-03     0s
  11  -1.11209467e+04 -1.12357851e+04  0.00e+00 7.11e-15  2.00e-03     0s
  12  -1.11367895e+04 -1.12119318e+04  0.00e+00 7.11e-15  1.31e-03     0s
  13  -1.11372713e+04 -1.11963986e+04  0.00e+00 7.11e-15  1.03e-03     1s
  14  -1.11405654e+04 -1.11756462e+04  0.00e+00 7.11e-15  6.11e-04     1s
  15  -1.11521352e+04 -1.11619038e+04  0.00e+00 1.42e-14  1.70e-04     1s
  16  -1.11531005e+04 -1.11531704e+04  0.00e+00 7.11e-15  1.21e-06     1s
  17  -1.11531255e+04 -1.11531255e+04  0.00e+00 1.42e-14  2.58e-12     1s

Barrier solved model in 17 iterations and 0.55 seconds
Optimal objective -1.11531255e+04


Root relaxation: objective -1.115313e+04, 8533 iterations, 0.33 seconds

    Nodes    |    Current Node    |     Objective Bounds      |     Work
 Expl Unexpl |  Obj  Depth IntInf | Incumbent    BestBd   Gap | It/Node Time

     0     0 -11153.125    0  167    0.00000 -11153.125      -     -    1s
H    0     0                    -11102.00000 -11153.125  0.46%     -    1s

Explored 0 nodes (9466 simplex iterations) in 1.31 seconds
Thread count was 4 (of 4 available processors)

Optimal solution found (tolerance 1.00e-02)
Best objective -1.110200000000e+04, best bound -1.115300000000e+04, gap 0.4594%
Changed value of parameter MIPGap to 0.01
   Prev: 0.0001  Min: 0.0  Max: 1e+100  Default: 0.0001
Changed value of parameter TimeLimit to 7200.0
   Prev: 1e+100  Min: 0.0  Max: 1e+100  Default: 1e+100
Changed value of parameter Method to 2
   Prev: -1  Min: -1  Max: 4  Default: -1
Changed value of parameter MIPFocus to 1
   Prev: 0  Min: 0  Max: 3  Default: 0
Optimize a model with 61830 rows, 153325 columns and 306650 nonzeros
Coefficient statistics:
  Matrix range    [1e+00, 4e+01]
  Objective range [1e+00, 1e+00]
  Bounds range    [1e+00, 1e+00]
  RHS range       [3e+02, 3e+02]
Found heuristic solution: objective 0
Presolve time: 0.63s
Presolved: 61830 rows, 153325 columns, 306650 nonzeros
Variable types: 0 continuous, 153325 integer (153325 binary)
Optimize a model with 61830 rows, 153325 columns and 306650 nonzeros
Coefficient statistics:
  Matrix range    [1e+00, 4e+01]
  Objective range [1e+00, 1e+00]
  Bounds range    [1e+00, 1e+00]
  RHS range       [3e+02, 3e+02]
Presolved: 61830 rows, 153325 columns, 306650 nonzeros

Root barrier log...

Ordering time: 0.04s

Barrier statistics:
 AA' NZ     : 1.533e+05
 Factor NZ  : 4.580e+05 (roughly 90 MBytes of memory)
 Factor Ops : 4.026e+07 (less than 1 second per iteration)
 Threads    : 2

                  Objective                Residual
Iter       Primal          Dual         Primal    Dual     Compl     Time
   0  -3.27110898e+05 -1.18820100e+05  9.33e+02 1.11e-16  7.16e+00     1s
   1  -6.58149939e+04 -1.07172377e+05  1.50e+02 8.88e-16  1.30e+00     1s
   2  -2.23554818e+04 -6.47706271e+04  2.10e+01 1.11e-15  2.54e-01     1s
   3  -1.57357195e+04 -2.18932737e+04  3.19e-01 1.78e-15  2.09e-02     2s
   4  -1.64201357e+04 -1.81072562e+04  1.27e-01 2.22e-15  5.78e-03     2s
   5  -1.65702912e+04 -1.76581457e+04  9.37e-02 1.55e-15  3.75e-03     2s
   6  -1.66381427e+04 -1.74107298e+04  7.89e-02 8.88e-16  2.68e-03     2s
   7  -1.66957528e+04 -1.72967775e+04  6.67e-02 1.33e-15  2.10e-03     2s
   8  -1.67833751e+04 -1.71965756e+04  4.96e-02 1.33e-15  1.45e-03     2s
   9  -1.68174645e+04 -1.71487820e+04  4.19e-02 1.11e-15  1.17e-03     2s
  10  -1.68413099e+04 -1.70860146e+04  3.65e-02 1.55e-15  8.73e-04     3s
  11  -1.68770421e+04 -1.70629279e+04  2.85e-02 1.78e-15  6.65e-04     3s
  12  -1.68991903e+04 -1.70393308e+04  2.36e-02 1.11e-15  5.06e-04     3s
  13  -1.69173419e+04 -1.70256618e+04  1.95e-02 1.78e-15  3.93e-04     3s
  14  -1.69438523e+04 -1.70187475e+04  1.40e-02 8.88e-16  2.73e-04     3s
  15  -1.69548042e+04 -1.70149566e+04  1.14e-02 1.13e-15  2.20e-04     3s
  16  -1.69622701e+04 -1.70144318e+04  9.69e-03 1.11e-15  1.90e-04     3s
  17  -1.69739753e+04 -1.70104310e+04  6.93e-03 1.33e-15  1.33e-04     3s
  18  -1.69799741e+04 -1.70078967e+04  5.49e-03 1.11e-15  1.02e-04     4s
  19  -1.69928013e+04 -1.70059732e+04  2.41e-03 8.88e-16  4.79e-05     4s
  20  -1.69960714e+04 -1.70044588e+04  1.72e-03 1.11e-15  3.09e-05     4s
  21  -1.70031450e+04 -1.70038840e+04  2.01e-05 1.02e-15  2.45e-06     4s
  22  -1.70034056e+04 -1.70034132e+04  1.15e-07 1.26e-15  2.49e-08     4s
  23  -1.70034085e+04 -1.70034085e+04  8.58e-11 1.11e-15  3.79e-12     4s

Barrier solved model in 23 iterations and 4.34 seconds
Optimal objective -1.70034085e+04


Root crossover log...

       0 PPushes remaining with PInf 0.0000000e+00                 5s

  Push phase complete: Pinf 0.0000000e+00, Dinf 6.9118322e-14      5s


Root simplex log...

Iteration    Objective       Primal Inf.    Dual Inf.      Time
   71261   -1.7003408e+04   0.000000e+00   0.000000e+00      6s
   71261   -1.7003408e+04   0.000000e+00   0.000000e+00      6s

Root relaxation: objective -1.700341e+04, 71261 iterations, 4.85 seconds

    Nodes    |    Current Node    |     Objective Bounds      |     Work
 Expl Unexpl |  Obj  Depth IntInf | Incumbent    BestBd   Gap | It/Node Time

     0     0 -17003.408    0  815    0.00000 -17003.408      -     -   11s
H    0     0                    -16908.00000 -17003.408  0.56%     -   11s

Explored 0 nodes (88352 simplex iterations) in 11.20 seconds
Thread count was 4 (of 4 available processors)

Optimal solution found (tolerance 1.00e-02)
Best objective -1.690800000000e+04, best bound -1.700300000000e+04, gap 0.5619%
